<number of tasks>
100

<cycle time>
1000

<order strength>
0.902


<task times>
1 51
2 226
3 64
4 466
5 170
6 159
7 596
8 389
9 78
10 271
11 508
12 266
13 229
14 558
15 86
16 29
17 566
18 35
19 170
20 529
21 167
22 32
23 228
24 97
25 45
26 139
27 215
28 101
29 94
30 143
31 221
32 73
33 83
34 91
35 219
36 478
37 148
38 30
39 60
40 105
41 291
42 498
43 360
44 139
45 165
46 532
47 89
48 164
49 74
50 173
51 187
52 346
53 238
54 439
55 20
56 359
57 193
58 254
59 253
60 81
61 159
62 60
63 74
64 226
65 213
66 270
67 175
68 194
69 73
70 88
71 130
72 63
73 576
74 292
75 261
76 114
77 105
78 48
79 444
80 213
81 234
82 60
83 81
84 75
85 238
86 77
87 104
88 276
89 556
90 22
91 54
92 79
93 186
94 253
95 338
96 414
97 575
98 409
99 240
100 216

<precedence relations>
1,5
1,6
1,7
1,8
2,5
2,6
2,7
2,8
3,5
3,6
3,7
3,8
4,5
4,6
4,7
4,8
5,9
5,10
6,9
6,10
7,9
7,10
8,9
8,10
9,11
9,12
9,13
9,14
10,11
10,12
10,13
10,14
11,15
11,16
11,17
12,15
12,16
12,17
13,15
13,16
13,17
14,15
14,16
14,17
15,18
15,19
15,20
16,18
16,19
16,20
17,18
17,19
17,20
18,21
18,22
18,23
18,24
19,21
19,22
19,23
19,24
20,21
20,22
20,23
20,24
21,25
21,26
21,27
21,28
21,29
21,30
22,25
22,26
22,27
22,28
22,29
22,30
23,25
23,26
23,27
23,28
23,29
23,30
24,25
24,26
24,27
24,28
24,29
24,30
25,31
25,32
25,33
25,34
26,31
26,32
26,33
26,34
27,31
27,32
27,33
27,34
28,31
28,32
28,33
28,34
29,31
29,32
29,33
29,34
30,31
30,32
31,35
31,36
32,35
32,36
32,37
33,35
33,36
33,37
34,35
34,36
34,39
35,40
36,38
37,38
37,39
37,40
38,41
38,42
39,41
39,42
40,41
40,42
41,43
41,44
41,45
41,46
42,43
42,44
42,45
42,46
43,47
43,48
44,47
45,56
45,57
45,58
46,47
46,48
47,49
47,50
47,51
48,49
48,50
48,51
49,52
49,53
49,54
49,55
50,54
51,52
51,53
51,54
51,55
52,56
52,57
53,56
53,57
53,58
54,58
55,56
55,57
56,59
56,70
57,59
57,60
58,59
59,61
59,62
59,63
59,78
60,61
60,64
61,69
62,65
62,79
62,81
64,66
64,67
65,68
65,72
66,68
66,71
66,74
66,79
67,69
67,70
68,76
68,90
69,72
69,73
69,74
70,75
70,81
71,72
71,73
71,88
71,89
72,80
73,81
73,83
73,92
74,77
75,78
75,79
76,77
77,82
78,91
79,82
79,83
80,83
81,100
82,84
83,85
84,88
84,89
85,86
85,87
86,91
86,93
87,90
89,92
90,94
90,95
91,94
92,98
93,95
94,96
94,97
94,100
95,98
95,99

<end>
